14
5 9
5 2
5 8
5 12
5 1
5 11
5 10
5 7
9 4
9 2
9 11
9 10
9 3
9 13
9 0
8 13
8 4
8 10
8 11
8 3
8 1
8 7
13 12
13 4
13 2
13 3
13 7
13 6
4 0
4 10
4 1
4 11
4 6
7 12
7 0
7 6
7 2
7 1
12 10
12 0
12 6
12 11
12 3
3 11
3 0
3 10
3 2
11 1
11 6
0 1
0 6
0 2
2 1
2 6
1 10
6 10
